p wcnf 131 196 197 
1 -96 -38 0 
1 51 -85 0 
1 125 -112 0 
1 -77 111 0 
1 26 -131 0 
1 -45 90 0 
1 28 -117 0 
1 -54 -90 0 
1 119 -41 0 
1 -94 -18 0 
1 -44 -82 0 
1 -57 1 0 
1 41 -126 0 
1 -59 -117 0 
1 -27 -62 0 
1 42 -73 0 
1 -109 23 0 
1 121 79 0 
1 -90 115 0 
1 -41 29 0 
1 57 -51 0 
1 -92 131 0 
1 82 26 0 
1 101 -19 0 
1 -16 90 0 
1 -106 1 0 
1 -45 111 0 
1 20 127 0 
1 68 21 0 
1 18 -79 0 
1 -36 125 0 
1 -84 37 0 
1 96 -59 0 
1 -42 -23 0 
1 -1 -39 0 
1 -123 107 0 
1 -55 38 0 
1 -62 90 0 
1 126 73 0 
1 -8 10 0 
1 -60 -13 0 
1 32 -55 0 
1 121 -46 0 
1 7 -123 0 
1 -80 -15 0 
1 28 124 0 
1 101 1 0 
1 128 -38 0 
1 76 -92 0 
1 -124 -94 0 
1 -22 -72 0 
1 90 23 0 
1 -7 -39 0 
1 89 29 0 
1 -34 22 0 
1 -107 101 0 
1 95 60 0 
1 -108 -30 0 
1 103 -79 0 
1 -4 26 0 
1 -45 -33 0 
1 121 30 0 
1 87 -55 0 
1 -84 -88 0 
1 51 -15 0 
1 91 68 0 
1 4 62 0 
1 115 -3 0 
1 -40 82 0 
1 -35 -96 0 
1 -88 -80 0 
1 99 -2 0 
1 -19 79 0 
1 10 -121 0 
1 112 68 0 
1 73 112 0 
1 123 48 0 
1 -13 50 0 
1 -80 69 0 
1 -77 -37 0 
1 -8 101 0 
1 -38 -82 0 
1 -45 -62 0 
1 106 125 0 
1 82 73 0 
1 27 -10 0 
1 -24 -72 0 
1 36 70 0 
1 87 94 0 
1 130 -40 0 
1 -42 86 0 
1 38 -90 0 
1 -106 -38 0 
1 -111 -59 0 
1 -58 26 0 
1 -100 11 0 
1 -63 5 0 
1 88 -35 0 
1 -126 -110 0 
1 -27 -106 0 
1 73 19 0 
1 -45 1 0 
1 -41 20 0 
1 43 46 0 
1 -4 -16 0 
1 -106 -1 0 
1 59 -86 0 
1 126 -59 0 
1 -119 -49 0 
1 128 -83 0 
1 120 -30 0 
1 -72 85 0 
1 -15 -76 0 
1 118 80 0 
1 40 125 0 
1 115 65 0 
1 -86 -11 0 
1 100 -97 0 
1 -89 131 0 
1 -106 -96 0 
1 -129 68 0 
1 -34 88 0 
1 -47 120 0 
1 -19 38 0 
1 80 72 0 
1 -70 -32 0 
1 1 79 0 
1 95 -82 0 
1 -19 39 0 
1 -106 -5 0 
1 -103 78 0 
1 23 127 0 
1 121 43 0 
1 -121 119 0 
1 72 -80 0 
1 -62 -82 0 
1 -30 -117 0 
1 -100 24 0 
1 92 128 0 
1 -73 104 0 
1 -19 101 0 
1 1 -34 0 
1 29 98 0 
1 -37 115 0 
1 -101 -30 0 
1 -30 24 0 
1 -59 104 0 
1 56 -72 0 
1 -43 -121 0 
1 101 49 0 
1 40 -5 0 
1 107 -102 0 
1 -78 63 0 
1 7 -85 0 
1 94 -27 0 
1 -45 -94 0 
1 65 -79 0 
1 112 1 0 
1 120 -86 0 
1 104 -58 0 
1 -95 13 0 
1 -123 -91 0 
1 44 -22 0 
1 -128 -130 0 
1 -58 -45 0 
1 78 -40 0 
1 -89 -123 0 
1 46 66 0 
1 57 23 0 
1 -4 95 0 
1 -109 -36 0 
1 -15 41 0 
1 42 54 0 
1 11 29 0 
1 79 -29 0 
1 -103 -73 0 
1 22 79 0 
1 -128 -7 0 
1 79 -21 0 
1 -49 -87 0 
1 -83 -96 0 
1 47 -121 0 
1 49 -130 0 
1 21 -118 0 
1 50 105 0 
1 64 42 0 
1 73 -91 0 
1 -98 -69 0 
1 19 49 0 
1 29 -110 0 
1 101 -23 0 
1 51 92 0 
1 -22 -20 0 
1 119 -38 0 
1 94 31 0 
1 -20 4 0 
